c This is QMaxSAT 2017 based on 14.07
c This is Glucose 3.0
c This is MiniSat 2.2.0
c WARNING: for repeatability, setting FPU to use double precision
c card = mrwto, comp = 0, pmodel = 0, narr = 5, mct = 24, verb = 0
cr firstCPXsol 0 0 0
c top = 81479
c |  Number of variables:    14518                                            |
c |  Number of clauses:      3025453                                          |
c |  Weight of hard clauses: 81479                                            |
c |  Number of soft clauses: 2760                                             |
c |  Number of unit soft clauses: 2760                                        |
c |  Maximum Cardinality (by unit): 407390       (407390      )               |
c last restart ## conflicts  :  0 663 
o 1178 | cpuTime 0.237383 s
c Sum of weights = 81478
c A number of soft clauses remained = 552
c MRWTO encoding for Pseudo-Boolean Constraints
c sizeMax=1178
c No.0 Divisor=11	generated by pow1
c No.1 Divisor=11	generated by pow1
c No.2 Divisor=11	generated by pow1
c p0= 11	p1= 11	p2= 11	
c number of digits = 4
c linkingVar[0].size = 11, linkingVar[1].size = 11, linkingVar[2].size = 10, linkingVar[3].size = 1, 
c Pseudo-Boolean Constraints: 11627 variables and 104135 clauses
c Sum of weights = 81478
c A number of soft clauses remained = 552
c MRWTO encoding for Pseudo-Boolean Constraints
c sizeMax=1178
c No.0 Divisor=11	generated by pow1
c No.1 Divisor=11	generated by pow1
c No.2 Divisor=11	generated by pow1
c p0= 11	p1= 11	p2= 11	
c number of digits = 4
c linkingVar[0].size = 11, linkingVar[1].size = 11, linkingVar[2].size = 10, linkingVar[3].size = 1, 
c Pseudo-Boolean Constraints: 11627 variables and 104135 clauses
c Sum of weights = 81478
c A number of soft clauses remained = 552
c MRWTO encoding for Pseudo-Boolean Constraints
c sizeMax=1178
c No.0 Divisor=11	generated by pow1
c No.1 Divisor=11	generated by pow1
c No.2 Divisor=11	generated by pow1
c p0= 11	p1= 11	p2= 11	
c number of digits = 4
c linkingVar[0].size = 11, linkingVar[1].size = 11, linkingVar[2].size = 10, linkingVar[3].size = 1, 
c Pseudo-Boolean Constraints: 11627 variables and 104135 clauses
c Sum of weights = 81478
c A number of soft clauses remained = 552
c MRWTO encoding for Pseudo-Boolean Constraints
c sizeMax=1178
c No.0 Divisor=11	generated by pow1
c No.1 Divisor=11	generated by pow1
c No.2 Divisor=11	generated by pow1
c p0= 11	p1= 11	p2= 11	
c number of digits = 4
c linkingVar[0].size = 11, linkingVar[1].size = 11, linkingVar[2].size = 10, linkingVar[3].size = 1, 
c Pseudo-Boolean Constraints: 11627 variables and 104135 clauses
c Sum of weights = 81478
c A number of soft clauses remained = 552
c MRWTO encoding for Pseudo-Boolean Constraints
c sizeMax=1178
c No.0 Divisor=11	generated by pow1
c No.1 Divisor=11	generated by pow1
c No.2 Divisor=11	generated by pow1
c p0= 11	p1= 11	p2= 11	
c number of digits = 4
c linkingVar[0].size = 11, linkingVar[1].size = 11, linkingVar[2].size = 10, linkingVar[3].size = 1, 
c Pseudo-Boolean Constraints: 11627 variables and 104135 clauses
c last restart ## conflicts  :  58 3292 
o 1123 | cpuTime 0.492166 s
c last restart ## conflicts  :  42 15262 
o 959 | cpuTime 0.512358 s
c last restart ## conflicts  :  235 2532 
o 911 | cpuTime 1.46308 s
c last restart ## conflicts  :  192 2374 
o 901 | cpuTime 7.55408 s
c last restart ## conflicts  :  282 3210 
o 876 | cpuTime 9.95242 s
c last restart ## conflicts  :  85 6870 
o 825 | cpuTime 9.99911 s
c last restart ## conflicts  :  65 10450 
o 822 | cpuTime 10.0461 s
c last restart ## conflicts  :  265 4141 
o 790 | cpuTime 10.1165 s
c last restart ## conflicts  :  288 2112 
o 789 | cpuTime 18.5525 s
c last restart ## conflicts  :  3275 2128 
o 757 | cpuTime 51.9874 s
c last restart ## conflicts  :  185 1356 
o 754 | cpuTime 96.524 s
c last restart ## conflicts  :  52 11691 
o 749 | cpuTime 96.5563 s
c last restart ## conflicts  :  148 2421 
o 696 | cpuTime 140.49 s
c last restart ## conflicts  :  340 2352 
o 694 | cpuTime 299.452 s
c last restart ## conflicts  :  402 1720 
o 692 | cpuTime 326.307 s
c last restart ## conflicts  :  1 1880 
o 687 | cpuTime 411.398 s
c last restart ## conflicts  :  468 1681 
o 665 | cpuTime 451.007 s
c last restart ## conflicts  :  494 2022 
o 660 | cpuTime 1200.45 s
c last restart ## conflicts  :  882 1634 
o 655 | cpuTime 1229.93 s
c last restart ## conflicts  :  32 10172 
o 650 | cpuTime 1229.95 s
c last restart ## conflicts  :  1118 1575 
o 641 | cpuTime 1932.61 s
c last restart ## conflicts  :  273 1521 
o 640 | cpuTime 2359.28 s
s UNKNOWN
c Search is stopped by a limit (maybe time-limit)
cr positiVarArr: [ | 23@1(1->23) | 206@1(9->14) | 297@1(13->9) | 313@1(14->1) | 541@1(23->13) | 592@2(1->16) | 642@2(3->18) | 708@2(6->12) | 723@2(7->3) | 750@2(8->6) | 841@2(12->1) | 943@2(16->7) | 981@2(17->21) | 1006@2(18->22) | 1025@2(19->17) | 1064@2(21->8) | 1099@2(22->19) | 1154@3(1->2) | 1177@3(2->1) | 1743@4(1->15) | 2084@4(15->20) | 2185@4(20->1) | 2328@5(1->24) | 2377@5(4->1) | 2410@5(5->10) | 2531@5(10->11) | 2548@5(11->4) | 2861@5(24->5) | ]
cr the 1-th chain: [ 1->23->13->9->14->1 ] (#non-depot=4) {#cumul.=5}
cr the 2-th chain: [ 1->16->7->3->18->22->19->17->21->8->6->12->1 ] (#non-depot=11) {#cumul.=16}
cr the 3-th chain: [ 1->2->1 ] (#non-depot=1) {#cumul.=17}
cr the 4-th chain: [ 1->15->20->1 ] (#non-depot=2) {#cumul.=19}
cr the 5-th chain: [ 1->24->5->10->11->4->1 ] (#non-depot=5) {#cumul.=24}
c Latest Answer = 0 by 23 loops
c restarts              : 41169
c conflicts             : 13832627       (3852 /sec)
c decisions             : 62306901       (0.00 % random) (17351 /sec)
c propagations          : 20815201104    (5796691 /sec)
c conflict literals     : 3848428844     (47.65 % deleted)
c Memory used           : 955.00 MB
c CPU time              : 3590.88 s
